c --- [ banner ] -------------------------------------------------------------
c 
c CaDiCaL Radically Simplified CDCL SAT Solver
c Copyright (c) 2016-2021 A. Biere, M. Fleury, N. Froleyks
c 
c Version 1.5.2 a5f15211db36c3956764e18194dd5bd63bf3b5e6
c g++ (GCC) 9.3.0 -Wall -Wextra -O3 -DNDEBUG
c Fri Oct 21 01:27:37 EDT 2022 Linux gra-login3 3.10.0-1160.66.1.el7.x86_64 x86_64
c 
c --- [ limit ] --------------------------------------------------------------
c 
c setting conflict limit to 200000 conflicts (due to '200000')
c 
c --- [ parsing input ] ------------------------------------------------------
c 
c reading DIMACS file from '33.cubes2904.adj'
c opening file to read '33.cubes2904.adj'
c found 'p cnf 6160 1595476' header
c parsed 1595476 clauses in 19.40 seconds process time
c closing file '33.cubes2904.adj'
c after reading 1457566785 bytes 1390.0 MB
c 
c --- [ options ] ------------------------------------------------------------
c 
c all options are set to their default value
c 
c --- [ solving ] ------------------------------------------------------------
c 
c time measured in process time since initialization
c 
c  seconds    reductions  redundant   irredundant
c          MB     restarts       trail       variables
c            level   conflicts       glue         remaining
c 
c * 19.40 1387  0 0   0    0    0  0% 0 1595422 2337 38%
c { 21.03 1452  0 0   0    0    0  0% 0 1595422 2337 38%
c i 23.99 1494 304 0   2   58   46 27% 4 1595422 2336 38%
c i 25.55 1509 254 0   8   81   66 27% 28 1595422 2335 38%
c i 25.76 1512 246 0  10   85   69 27% 29 1595422 2334 38%
c i 26.00 1516 222 0  11  101   81 27% 31 1595422 2333 38%
c i 26.63 1520 204 0  16  115   94 26% 33 1595422 2325 38%
c i 27.88 1529 180 0  24  150  126 27% 36 1595422 2324 38%
c i 28.20 1530 122 0  27  247  205 29% 32 1595422 2323 38%
c i 28.21 1530 121 0  27  254  209 29% 33 1595422 2322 38%
c i 28.56 1531 122 0  30  270  224 29% 35 1595422 2321 38%
c i 28.60 1531 123 0  30  273  226 29% 35 1595422 2320 38%
c - 33.97 1528 124 1  38  300  252 28% 35 563914 2320 38%
c i 34.68 1378 119 1  47  334  281 28% 37 563914 2319 38%
c i 34.74 1378 116 1  50  346  290 29% 36 563914 2318 38%
c i 34.87 1378 95 1  50  447  381 29% 32 563914 2317 38%
c } 36.24 1380 67 1  56 1000  811 29% 29 563914 2317 38%
c [ 36.24 1380  0 1  56 1000  811  0% 0 563914 2317 38%
c O 36.27 1380 11 1  56 1002  813 23% 10 563914 2317 38%
c i 36.31 1380  6 1  56 1004  814 19% 5 563914 2299 37%
c 
c  seconds    reductions  redundant   irredundant
c          MB     restarts       trail       variables
c            level   conflicts       glue         remaining
c 
c - 38.33 1633 26 2  56 1351  951 31% 21 563631 2299 37%
c i 38.38 1633 26 2  56 1360  958 31% 21 563631 2298 37%
c - 40.36 1633 26 3  57 2929 1531 31% 22 563628 2298 37%
c ] 40.96 1633 26 3  57 3001 1582 50% 22 563628 2298 37%
c { 40.96 1633 67 3  57 3001 1582 79% 29 563628 2298 37%
c F 41.00 1633 67 3  57 3005 1584 79% 29 563628 2298 37%
c i 45.15 1633 63 3  88 3387 1924 70% 30 563628 2297 37%
c i 49.30 1632 60 3 118 3989 2431 63% 30 563628 2296 37%
c i 51.25 1632 58 3 138 4331 2726 61% 29 563628 2295 37%
c i 51.80 1633 56 3 140 4570 2914 60% 29 563628 2294 37%
c i 51.95 1633 55 3 140 4714 3004 59% 29 563628 2293 37%
c i 52.12 1633 53 3 140 4800 3059 59% 28 563628 2292 37%
c i 52.21 1633 53 3 140 4876 3109 59% 28 563628 2291 37%
c d 53.30 1633 51 3 140 5000 3169 58% 27 563565 2279 37%
c 3 53.36 1633 51 3 140 5000 4114 58% 27 563565 2279 37%
c 2 53.60 1633 51 3 140 5000 4202 58% 27 563556 2275 37%
c p 64.95 1633 51 3 140 5000 6468 58% 27 563556 2165 35%
c d 65.93 1633 51 3 140 5000 5986 58% 27 490016 2164 35%
c - 66.90 1530 51 4 140 5030 2267 58% 27 490016 2164 35%
c # 68.02 1530 43 4 140 6008 2861 56% 24 490016 2164 35%
c 
c  seconds    reductions  redundant   irredundant
c          MB     restarts       trail       variables
c            level   conflicts       glue         remaining
c 
c } 68.73 1530 37 4 140 7003 3572 54% 22 490016 2164 35%
c [ 68.73 1530 26 4 140 7003 3572 50% 22 490016 2164 35%
c - 69.30 1530 24 5 141 7567 2760 49% 21 490016 2164 35%
c I 70.64 1530 22 5 142 10012 4368 48% 18 490016 2164 35%
c - 74.21 1530 23 6 143 10609 3483 48% 19 490016 2164 35%
c - 80.09 1530 28 7 145 14158 4597 48% 21 490016 2164 35%
c 3 81.41 1530 28 7 145 15001 6154 48% 21 490016 2164 35%
c 2 81.52 1530 28 7 145 15001 6239 48% 21 490016 2164 35%
c p 85.36 1530 28 7 145 15001 8461 48% 21 490016 2164 35%
c ] 85.54 1530 28 7 145 15003 8463 48% 21 490016 2164 35%
c { 85.54 1530 37 7 145 15003 8463 54% 22 490016 2164 35%
c B 85.93 1530 37 7 145 15013 8471 54% 22 490016 2164 35%
c - 100.68 1530 36 8 378 18215 5726 52% 22 490016 2164 35%
c s 101.22 1530 35 8 378 18833 6081 52% 22 487407 2164 35%
c v 110.87 1530 35 8 378 18833 6081 52% 22 487393 2164 35%
c t 111.11 1530 35 8 378 18833 6069 52% 22 487386 2164 35%
c e 113.02 1532 35 8 378 18833 5619 52% 22 485504 978 16%
c s 113.18 1532 35 8 378 18833 5619 52% 22 481345 978 16%
c W 120.98 1342 33 8 435 21015 7203 65% 21 481345 978 16%
c - 132.10 1531 34 9 672 22778 6426 64% 22 481345 978 16%
c 
c  seconds     reductions    redundant   irredundant
c           MB      restarts        trail       variables
c             level     conflicts       glue        remaining
c 
c - 147.57 1342 32 10 868 27825 6981 65% 21 481345 978 16%
c F 148.20 1342 32 10 868 28016 7122 65% 21 481345 978 16%
c 3 156.90 1342 31 10 917 30002 9012 64% 21 481345 978 16%
c p 160.17 1342 31 10 917 30002 10621 64% 21 481345 978 16%
c } 162.30 1342 31 10 920 31003 11253 64% 20 481345 978 16%
c [ 162.30 1342 28 10 920 31003 11253 112% 21 481345 978 16%
c - 167.78 1531 26 11 920 33379 7396 101% 20 481345 978 16%
c ] 169.90 1531 26 11 923 35973 9129 93% 20 481345 978 16%
c 1 169.90 1531 26 11 923 35973 9129 93% 20 481345 978 16%
c 
c --- [ writing output ] -----------------------------------------------------
c 
c writing simplified CNF to DIMACS file 'simp/33.cubes2904.adj.simp1'
c * 169.90 1531 26 11 923 35973 9129 93% 20 481345 978 16%
c opening file to write 'simp/33.cubes2904.adj.simp1'
c writing 'p cnf 6160 481345' header
c closing file 'simp/33.cubes2904.adj.simp1'
c after writing 216187151 bytes 206.2 MB
c wrote 481345 clauses in 1.57 seconds process time
c 
c --- [ writing extension ] --------------------------------------------------
c 
c writing extension stack to 'simp/33.cubes2904.adj.ext1'
c opening file to write 'simp/33.cubes2904.adj.ext1'
c closing file 'simp/33.cubes2904.adj.ext1'
c after writing 80950 bytes 0.1 MB
c wrote 3641 witnesses in 0.00 seconds process time
c 
c --- [ result ] -------------------------------------------------------------
c 
s SATISFIABLE
c 
c --- [ run-time profiling ] -------------------------------------------------
c 
c process time taken by individual solving procedures
c (percentage relative to process time for solving)
c 
c       115.65   76.84% search
c        88.32   58.68% unstable
c        34.85   23.16% simplify
c        25.08   16.66% stable
c        19.40   12.89% parse
c        18.38   12.21% probe
c         9.83    6.53% vivify
c         3.63    2.41% elim
c         1.64    1.09% lucky
c         0.62    0.41% walk
c         0.31    0.20% subsume
c         0.22    0.15% ternary
c   =================================
c       150.50   87.77% solve
c 
c last line shows process time for solving
c (percentage relative to total process time)
c 
c --- [ statistics ] ---------------------------------------------------------
c 
c chronological:              7539        20.96 %  of conflicts
c conflicts:                 35973       239.02    per second
c decisions:                 96851       643.52    per second
c eliminated:                 1186        19.25 %  of all variables
c fixed:                       837        13.59 %  of all variables
c learned:                   35095        97.56 %  per conflict
c learned_lits:            5233236       100.00 %  learned literals
c minimized:                     0         0.00 %  learned literals
c shrunken:                3045598        58.20 %  learned literals
c minishrunken:             497994         9.52 %  learned literals
c propagations:            4091125         0.03 M  per second
c reduced:                   17178        47.75 %  per conflict
c rephased:                      7      5139.00    interval
c restarts:                    923        38.97    interval
c stabilizing:                   3        41.62 %  of conflicts
c substituted:                  15         0.24 %  of all variables
c subsumed:                  15356         0.46 %  of all clauses
c strengthened:               2129         0.06 %  of all clauses
c ternary:                    2523         0.64 %  of resolved
c vivified:                     23         0.00 %  of all clauses
c walked:                        1     35973.00    interval
c weakened:                   2804         3.13    average size
c 
c seconds are measured in process time for solving
c 
c --- [ resources ] ----------------------------------------------------------
c 
c total process time since initialization:       171.48    seconds
c total real time since initialization:          172.34    seconds
c maximum resident set size of process:         1886.38    MB
c 
c --- [ shutting down ] ------------------------------------------------------
c 
c exit 10
WARNING! DIMACS header mismatch: wrong number of variables.
============================[ Problem Statistics ]=============================
|                                                                             |
|  Number of variables:          4044                                         |
|  Number of clauses:          481345                                         |
|  Parse time:                   2.90 s                                       |
|  Simplification time:          0.09 s                                       |
|                                                                             |
============================[ Search Statistics ]====================================================
| Conflicts |          ORIGINAL         |          LEARNT          | Num Sols |      SUBGRAPHS      |
|           |    Vars  Clauses Literals |    Limit  Clauses Lit/Cl |          | Canonical Noncanon. |
=====================================================================================================
|       104 |    3950   481349 46954404 |     2000      104     90 |        0 |        21         4 |
|       265 |    3950   481360 46954625 |     2000      265     91 |        0 |        30        15 |
|       605 |    3950   481475 46956515 |     2000      605     71 |        0 |        66       130 |
|       949 |    3950   481482 46956621 |     2000      949     77 |        0 |        73       137 |
|      2185 |    3950   482212 46969349 |     3600     1185     18 |        0 |       329       867 |
|      3011 |    3950   482279 46970863 |     3600     2011     42 |        0 |       369       934 |
|      4229 |    3950   482358 46972071 |     3600     3229     55 |        0 |       397      1013 |
|      6002 |    3950   482423 46973056 |     5005     3207     46 |        0 |       433      1078 |
|      8582 |    3950   482441 46973522 |     6303     3285     37 |        0 |       443      1096 |
|     12590 |    3950   482605 46976310 |     7556     4146     39 |        0 |       495      1260 |
|     18676 |    3950   482925 46983779 |     8781     6457     53 |        0 |       573      1580 |
|     27689 |    3950   483289 46989902 |    11202     6091     28 |        0 |       709      1944 |
|     41885 |    3950   484511 47009907 |    13609     8494     35 |        0 |       947      3166 |
|     62962 |    3950   486127 47037734 |    16010    15372     53 |        0 |      1679      4782 |
|     93472 |    3950   487445 47062268 |    20818    10290     15 |        0 |      2005      6100 |
|    138126 |    3950   488310 47077547 |    24419    21945     47 |        0 |      2263      6965 |
|    207856 |    3950   492356 47139311 |    30416    24672     57 |        0 |      3953     11011 |
|    307910 |    3950   493884 47176716 |    37615    24525     33 |        0 |      4492     12539 |
|    456833 |    3950   495018 47210769 |    46018    29251     36 |        0 |      4913     13673 |
|    683358 |    3950   499860 47328782 |    55613    54971     54 |        0 |      6518     18515 |
|   1024899 |    3950   508876 47509283 |    68820    57719     55 |        0 |      9624     27531 |
|   1549404 |    3950   534593 47955375 |    85618    46022     26 |        0 |     18317     53248 |
|   2397049 |    3950   634056 49901388 |   106027    84476     37 |        0 |     47792    152711 |
|   3583262 |    3949   697941 51148253 |   130023    96685     45 |        0 |     69122    216650 |
=====================================================================================================
Number of solutions   : 0
Canonical subgraphs   : 100169         (4 /sec)
          order  3    : 1              (166667 /sec)
          order  4    : 1              (500000 /sec)
          order  5    : 1              (200000 /sec)
          order  6    : 1              (58824 /sec)
          order  7    : 1              (9009 /sec)
          order  8    : 1              (1005 /sec)
          order  9    : 2              (150 /sec)
          order 10    : 7              (37 /sec)
          order 11    : 35             (12 /sec)
          order 12    : 181            (9 /sec)
          order 13    : 678            (6 /sec)
          order 14    : 5262           (4 /sec)
          order 15    : 41578          (5 /sec)
          order 16    : 49025          (4 /sec)
          order 17    : 2601           (3 /sec)
          order 18    : 625            (4 /sec)
          order 19    : 145            (3 /sec)
          order 20    : 24             (3 /sec)
          order 21    : 0              (-nan /sec)
          order 22    : 0              (-nan /sec)
Noncanonical subgraphs: 317052         (82 /sec)
          order  3    : 0              (-nan /sec)
          order  4    : 0              (-nan /sec)
          order  5    : 0              (-nan /sec)
          order  6    : 0              (-nan /sec)
          order  7    : 0              (-nan /sec)
          order  8    : 0              (-nan /sec)
          order  9    : 0              (-nan /sec)
          order 10    : 0              (-nan /sec)
          order 11    : 0              (-nan /sec)
          order 12    : 0              (-nan /sec)
          order 13    : 2042           (7175 /sec)
          order 14    : 18503          (1786 /sec)
          order 15    : 138541         (373 /sec)
          order 16    : 76728          (222 /sec)
          order 17    : 80984          (26 /sec)
          order 18    : 212            (21 /sec)
          order 19    : 42             (14 /sec)
          order 20    : 0              (-nan /sec)
          order 21    : 0              (-nan /sec)
Canonicity checking   : 24032.7 s
Noncanonicity checking: 3846.12 s
Total canonicity time : 27878.8 s
database reductions   : 124
restarts              : 8190
conflicts             : 4860302        (160 /sec)
decisions             : 6456714        (0.00 % random) (212 /sec)
propagations          : 286713951      (9417 /sec)
conflict literals     : 442867309      (56.34 % deleted)
actual reward         : 0.216560
Memory used           : 762.00 MB
CPU time              : 30444.9 s

UNSATISFIABLE
